
Gurobi 11.0.3 (linux64) logging started Mon Aug 25 16:25:16 2025

Set parameter LogFile to value "/home/yihong/Coding/OR_SUC/SUC_epstheta_results_bigM100000_thread4/case24_ieee_rts_theta0.001_epsilon0.2_gurobi_seed260000_num_gen100_N_WDR50_load_scaling_factor1_ori_eps_T4quadra_cost_bc1.03.txt"
Set parameter TimeLimit to value 3600
Gurobi Optimizer version 11.0.3 build v11.0.3rc0 (linux64 - "Ubuntu 20.04.6 LTS")

CPU model: AMD EPYC 7532 32-Core Processor, instruction set [SSE2|AVX|AVX2]
Thread count: 64 physical cores, 128 logical processors, using up to 4 threads

Academic license 2399124 - for non-commercial use only - registered to yi___@ed.ac.uk
Optimize a model with 10688 rows, 5011 columns and 386358 nonzeros
Model fingerprint: 0xa359df5b
Model has 400 quadratic constraints
Variable types: 4611 continuous, 400 integer (400 binary)
Coefficient statistics:
  Matrix range     [3e-04, 2e+03]
  QMatrix range    [2e-03, 8e-03]
  QLMatrix range   [1e-01, 6e+01]
  Objective range  [1e+00, 1e+00]
  Bounds range     [1e+00, 1e+00]
  RHS range        [5e-02, 9e+03]
Presolve removed 9020 rows and 2262 columns
Presolve time: 0.12s
Presolved: 1668 rows, 2749 columns, 12856 nonzeros
Presolved model has 400 quadratic constraint(s)
Variable types: 2349 continuous, 400 integer (400 binary)

Root relaxation: objective 3.984994e+03, 1145 iterations, 0.02 seconds (0.02 work units)

    Nodes    |    Current Node    |     Objective Bounds      |     Work
 Expl Unexpl |  Obj  Depth IntInf | Incumbent    BestBd   Gap | It/Node Time

     0     0 3984.99356    0    8          - 3984.99356      -     -    0s
     0     0 82192.2069    0   92          - 82192.2069      -     -    0s
     0     0 82197.7416    0   92          - 82197.7416      -     -    0s
     0     0 125688.484    0   48          - 125688.484      -     -    0s
     0     0 125692.140    0   48          - 125692.140      -     -    0s
     0     0 125713.526    0   20          - 125713.526      -     -    0s
     0     0 125713.598    0   20          - 125713.598      -     -    0s
     0     0 125713.889    0   20          - 125713.889      -     -    0s
     0     0 125713.889    0   20          - 125713.889      -     -    0s
     0     2 125713.889    0   20          - 125713.889      -     -    1s
H   35    36                    125724.57416 125724.551  0.00%  14.3    1s
*   35    36               9    125724.57416 125724.551  0.00%  14.4    1s

Cutting planes:
  Gomory: 14
  Implied bound: 85
  MIR: 22
  Flow cover: 99

Explored 39 nodes (3360 simplex iterations) in 1.83 seconds (1.37 work units)
Thread count was 4 (of 128 available processors)

Solution count 2: 125725 125725 

Optimal solution found (tolerance 1.00e-03)
Warning: max constraint violation (5.1744e-08) exceeds tolerance
Best objective 1.257245741587e+05, best bound 1.257245505348e+05, gap 0.0000%

Gurobi 11.0.3 (linux64) logging started Mon Aug 25 16:25:18 2025

Set parameter LogFile to value "/home/yihong/Coding/OR_SUC/SUC_epstheta_results_bigM100000_thread4/case24_ieee_rts_theta0.001_epsilon0.2_gurobi_seed260000_num_gen100_N_WDR50_load_scaling_factor1_ori_eps_T4quadra_cost_bc1.03.txt"
Set parameter TimeLimit to value 3600
Gurobi Optimizer version 11.0.3 build v11.0.3rc0 (linux64 - "Ubuntu 20.04.6 LTS")

CPU model: AMD EPYC 7532 32-Core Processor, instruction set [SSE2|AVX|AVX2]
Thread count: 64 physical cores, 128 logical processors, using up to 4 threads

Academic license 2399124 - for non-commercial use only - registered to yi___@ed.ac.uk
Optimize a model with 22856 rows, 5012 columns and 1703251 nonzeros
Model fingerprint: 0xbffd2ee4
Model has 401 quadratic constraints
Variable types: 4612 continuous, 400 integer (400 binary)
Coefficient statistics:
  Matrix range     [3e-04, 2e+03]
  QMatrix range    [2e-03, 5e+01]
  QLMatrix range   [1e-01, 6e+01]
  Objective range  [1e+00, 1e+00]
  Bounds range     [2e-01, 1e+00]
  RHS range        [7e-02, 1e+05]
  QRHS range       [5e-02, 5e-02]
Presolve removed 6852 rows and 1939 columns
Presolve time: 1.57s
Presolved: 16406 rows, 3474 columns, 344709 nonzeros
Presolved model has 400 quadratic constraint(s)
Presolved model has 1 bilinear constraint(s)
Warning: Model contains variables with very large bounds participating
         in product terms.
         Presolve was not able to compute smaller bounds for these variables.
         Consider bounding these variables or reformulating the model.


Solving non-convex MIQCP

Variable types: 3070 continuous, 404 integer (404 binary)

Root relaxation: objective 0.000000e+00, 2053 iterations, 0.35 seconds (0.95 work units)

    Nodes    |    Current Node    |     Objective Bounds      |     Work
 Expl Unexpl |  Obj  Depth IntInf | Incumbent    BestBd   Gap | It/Node Time

     0     0    0.00000    0    2          -    0.00000      -     -    4s
     0     0    0.00000    0    3          -    0.00000      -     -    4s
     0     0    0.00000    0    2          -    0.00000      -     -    5s
     0     0    0.00000    0    2          -    0.00000      -     -    5s
     0     0    0.00000    0    2          -    0.00000      -     -    6s
     0     0    0.00000    0    2          -    0.00000      -     -    6s
     0     0    0.00000    0    2          -    0.00000      -     -    6s
     0     0    0.00000    0    2          -    0.00000      -     -    6s
     0     2    0.00000    0    2          -    0.00000      -     -    9s
     3     6    0.00000    2    2          -    0.00000      -  18.0   10s
     4     6    0.00126    2    -          -    0.00000      -   168  499s
     7     5    0.00000    3    1          -    0.00000      -   132  500s
*   25    21               3       0.0006331    0.00000   100%   259  502s
    40    30    0.00022    9    5    0.00063    0.00000   100%   388  505s
H  108    68                       0.0003807    0.00000   100%   153  509s
   123    74    0.00035    6    5    0.00038    0.00000   100%   180  510s
   635   227     cutoff   17         0.00038    0.00036  5.77%  48.4  515s
H  650   227                       0.0003720    0.00036  3.54%  47.3  515s
H 1002   207                       0.0003686    0.00036  2.21%  33.4  518s
* 1143   139              16       0.0003605    0.00036  0.00%  29.9 1040s

Cutting planes:
  Implied bound: 1
  MIR: 8
  Flow cover: 3
  RLT: 1

Explored 1197 nodes (37558 simplex iterations) in 1040.99 seconds (737.20 work units)
Thread count was 4 (of 128 available processors)

Solution count 5: 0.000360466 0.000368595 0.00037196 ... 0.00063309

Optimal solution found (tolerance 1.00e-03)
Warning: max constraint violation (1.0473e-09) exceeds tolerance
Best objective 3.604658308130e-04, best bound 3.604658308130e-04, gap 0.0000%
